(declare-const a Real)
(declare-const b Real)
(declare-const c Real)
(assert (= (+ a b c) 3))
(assert (> a 0))
(assert (> b 0))
(assert (> c 0))
(assert (not (<= (+ (* -1 (pow (+ (* (/ 1051 4) c) (* 280 (pow a 3) (pow b 2)) (* (/ 5915 4) c (pow b 2))) -1) (pow (+ (* 280 (pow a 3) (pow b 2)) (* (/ 1051 4) c (pow a 2)) (* (/ 5915 4) c (pow b 3))) 2)) (* -1520 a (pow c 4)) (* -1520 b (pow a 4)) (* -304 a (pow b 4)) (* -304 b (pow c 4)) (* -280 (pow a 2) (pow c 3)) (* 200 (pow b 3) (pow c 2)) (* 280 (pow a 2) (pow b 3)) (* 280 (pow b 2) (pow c 3)) (* 760 (pow a 3) (pow c 2)) (* 1344 a b (pow c 3)) (* 1509 a c (pow b 3)) (* 1509 b c (pow a 3)) (* (/ 135 2) c (pow a 2) (pow b 2))) 0)))
(check-sat)
(get-model)
(exit)